(declare-const delta_y Int)
(declare-const delta_tmp Int)
(declare-const delta_x Int)
(assert (exists
         ((|tmp'?1| Int) (|y'?2| Int) (|x'?3| Int) (phi_y?4 Int)
            (phi_x?5 Int) (havoc?6 Int) (z?7 Int) (w?8 Int) (x?9 Int)
            (y?10 Int) (tmp?11 Int))
         (and (<= (- z?7) 0) (< (- w?8) 0) (<= (- x?9) 0) (<= (- y?10) 0)
                (= (+ (- y?10) x?9) 0) (= (+ (- w?8) z?7 1) 0)
                (<= (+ x?9 -100000) 0) (<= (+ y?10 -100000) 0)
                (or (< havoc?6 0) (< 0 havoc?6))
                (or (and (= (+ (mod w?8 2) -1) 0) (= (+ (- phi_x?5) x?9 1) 0))
                      (and (or (< (+ (mod w?8 2) -1) 0)
                                 (< 0 (+ (mod w?8 2) -1)))
                             (= (+ (- phi_x?5) x?9) 0)))
                (or (and (= (mod z?7 2) 0) (= (+ (- phi_y?4) y?10 1) 0))
                      (and (or (< (mod z?7 2) 0) (< 0 (mod z?7 2)))
                             (= (+ (- phi_y?4) y?10) 0)))
                (= (+ |tmp'?1| (- havoc?6)) 0) (= (+ |y'?2| (- phi_y?4)) 0)
                (= (+ |x'?3| (- phi_x?5)) 0) (= delta_x (+ |x'?3| (- x?9)))
                (= delta_y (+ |y'?2| (- y?10)))
                (= delta_tmp (+ |tmp'?1| (- tmp?11))))))
(check-sat)
